NAME: rd100
DIMENSION: 16
EDGE_WEIGHT_TYPE: EUC_2D
NODE_COORD_SECTION
1 144 863
2 882 1
3 545 735
4 503 876
5 205 345
6 702 577
7 147 164
8 135 808
9 629 977
10 675 731
11 314 299
12 446 982
13 355 765
14 398 976
15 273 854
16 666 312
ACCEPTED_PROBABILITIES
0.0
0.95
0.75
0.75
0.75
0.75
0.75
0.5
0.75
0.75
0.75
0.75
0.5
0.5
0.5
0.75
OUTSOURCING_COSTS
0.0
75.6
28.07
23.93
34.73
41.8
46.53
3.67
33.27
36.47
39.27
21.67
15.47
18.53
8.67
50.6
